31
20 110 60 120
60 120 80 30
80 30 100 90
100 90 140 10
140 10 120 90
120 90 160 50
160 50 180 90
180 90 210 30
210 30 190 130
190 130 230 100
230 100 200 170
200 170 240 160
240 160 180 220
180 220 160 270
160 270 140 280
140 280 120 270
120 270 100 220
100 220 40 210
40 210 70 170
70 170 20 110
100 220 110 130
110 130 130 100
130 100 150 100
150 100 160 130
160 130 180 220
150 220 130 220
130 220 140 170
110 150 130 150
140 150 160 150
120 240 130 250
130 250 160 250